n=30;
t=40;
profit=[3 8 6 5 3 5 5 2 1 5 10 10 3 3 7 2 9 3 10 7 6 3 4 8 2 7 6 6 4 9];
length=[4 3 2 4 1 3 5 2 5 1 4 1 5 2 2 4 2 1 4 4 1 2 2 3 2 2 4 4 4 4];
min_deliver=[4 3 11 38 1 39 33 21 6 6 12 32 9 33 28 31 38 33 30 8 38 10 19 36 5 3 9 30 4 18];
max_deliver=[4 6 12 38 1 40 34 22 9 7 17 36 10 38 31 36 40 38 35 13 38 10 22 36 10 5 9 35 5 22];
surface=[4 4 5 3 2 3 3 1 5 4 2 4 3 5 2 2 4 2 4 3 3 2 4 4 5 4 2 3 1 3];
surface_capacity=15;
